(set-logic ALL)
(set-option :produce-models true)
(declare-sort BoundSet 0)
(declare-sort UnboundSet 0)
(declare-fun IsReceived (BoundSet) Bool)
(declare-fun HasF (BoundSet) Bool)
(declare-fun IsBroken (BoundSet) Bool)
(declare-fun IsOn (BoundSet) Bool)
(assert (not (=> (exists ((b BoundSet)) (exists ((a BoundSet)) (and (IsReceived b) (HasF a)))) (exists ((d BoundSet)) (exists ((c BoundSet)) (exists ((a BoundSet)) (and (IsBroken c) (and (HasF a) (IsOn d)))))))))
(check-sat)
(get-model)